Model 6 9 8 10
4 6 6 7 7 7 
1 3 0 3
1 10
3 10
5 10
1 4 0 3
1 10
3 10
5 10
1 5 0 3
1 10
3 10
5 10
3 0 3 4 -1 wsum hard 10 == 8
3 3 1 5 -1 wsum hard 10 == 8
3 4 5 2 -1 wsum hard 10 == 8
6 0 1 2 3 4 5 -1 wsum hard 10 == 16
1 3 0 1
0 10
1 4 0 1
0 10
4 0 0 3 4 -1 wsum hard 10 == 8
4 1 3 1 5 -1 wsum hard 10 == 12
4 2 4 5 2 -1 wsum hard 10 == 12
